SmH
 &control
    calculation     = 'nscf'
    prefix          = 'PrH9'
    restart_mode    = 'from_scratch'
    wf_collect      = .true.
    pseudo_dir      = './'
    outdir          = './OUTPUT/'
    tprnfor         = .true.
    tstress         = .true.
    verbosity       = 'high'
 /
&SYSTEM
  ibrav = 4
  celldm(1) = 6.6015
  celldm(3) = 1.497028
  nat = 20
  ntyp = 2
  ecutwfc         = 65
  ecutrho         = 260
  occupations = 'smearing'
  smearing = 'fermi-dirac'
  degauss = 0.01
! la2f = .true.
  nbnd = 50
/
&electrons
    diagonalization = 'david'
    mixing_beta     = 0.7
    conv_thr        = 1.0d-11
/
ATOMIC_SPECIES
   H    1.00800  H_C17_PBE_OTF.UPF
  Pr  140.90800  Pr_C17_PBE_OTF.UPF
ATOMIC_POSITIONS {crystal}
Pr 0.666666700  0.333333299  0.250000000
Pr 0.333333299  0.666666700  0.750000000
H  0.155172664  0.844827335  0.435595106
H  0.689654670  0.844827335  0.064404893
H  0.310345329  0.155172664  0.935595106
H  0.155172664  0.844827335  0.064404893
H  0.844827335  0.689654670  0.564404893
H  0.844827335  0.155172664  0.564404893
H  0.310345329  0.155172664  0.564404893
H  0.844827335  0.689654670  0.935595106
H  0.155172664  0.310345329  0.435595106
H  0.689654670  0.844827335  0.435595106
H  0.155172664  0.310345329  0.064404893
H  0.844827335  0.155172664  0.935595106
H  0.333333299  0.666666700  0.147251808
H  0.333333299  0.666666700  0.352748191
H  0.666666700  0.333333299  0.647251808
H  0.666666700  0.333333299  0.852748191
H  0.000000000  0.000000000  0.750000000
H  0.000000000  0.000000000  0.250000000
K_POINTS automatic
24 24 24 0 0 0
