 &input
  zasr='simple',  fildyn='elph.dyn', flfrc='elph333.fc'
 /
